1 1 -2 0
1 -3 -4 0
1 -5 -6 0
1 3 -7 0
1 8 -9 0
1 1 4 0
1 -1 4 0
1 -3 10 0
1 -11 3 0
1 -12 0
1 13 0
1 8 14 0
1 11 0
1 -10 -15 0
1 -16 -4 0
1 -17 0
1 4 -3 0
1 -2 0
1 -3 -10 0
1 5 -4 0
1 4 3 0
1 -10 8 0
1 -17 18 0
1 -19 -3 0
1 -8 3 0
1 -8 -1 0
1 20 0
1 3 8 0
1 18 0
1 -21 0
1 -22 16 0
1 -23 0
1 24 5 0
1 -10 -3 0
1 -10 3 0
1 -8 6 0
1 -4 -10 0
1 3 4 0
1 -16 -1 0
1 1 -13 0
1 4 -9 0
1 -3 14 0
1 10 5 0
1 -4 -25 0
1 -3 8 0
1 -4 3 0
1 -5 -26 0
1 27 8 0
1 4 1 -8 0
1 13 -1 0
1 -12 -25 0
1 -5 0
1 -3 1 0
1 -26 0
1 -18 22 0
1 -6 10 0
1 3 -24 0
1 -28 0
1 -4 0
1 25 13 0
1 4 26 0
1 3 0
1 -1 -2 0
1 -24 0
1 -13 -4 0
1 -24 3 0
1 -3 -1 0
1 -1 6 0
1 2 10 0
1 -8 13 0
1 29 -4 0
1 -4 8 0
1 15 -26 0
1 -9 3 0
1 1 -8 0
1 -1 13 0
1 1 -9 0
1 -19 0
1 3 1 0
1 23 3 0
1 25 -4 0
1 -1 0
1 8 -22 0
1 -18 -1 0
1 7 2 0
1 -14 -15 0
1 1 -10 0
1 25 0
1 3 -28 0
1 -30 8 0
1 -1 8 0
1 -1 -10 0
1 15 -9 0
1 -4 -3 0
1 3 -10 0
1 3 -8 0
1 -19 3 0
1 8 -11 0
1 -27 0
1 -1 -4 0
1 31 8 0
1 -3 -23 0
1 -7 -4 0
1 -28 15 0
1 -10 26 0
1 10 20 0
1 12 -27 0
1 10 4 0
1 17 10 0
1 -5 -27 0
1 20 8 0
1 14 0
1 -16 0
1 28 10 0
1 32 -8 0
1 17 -4 0
1 10 -3 0
1 31 0
1 -8 -31 0
1 19 1 0
1 7 0
1 -1 26 0
1 4 1 0
1 33 0
1 -1 -34 0
1 1 -25 0
1 -14 10 0
1 23 31 0
1 32 20 0
1 22 -4 0
1 -23 -3 0
1 -22 -8 0
1 10 33 0
1 4 -15 0
1 1 -31 0
1 -25 -4 0
1 -21 -4 0
1 4 1 -3 0
1 3 -10 8 0
1 -2 8 0
1 -32 10 0
1 -12 -4 0
1 34 -27 0
1 -21 -1 0
1 10 2 0
1 -32 28 0
1 -12 7 0
1 8 27 0
1 31 5 0
1 -10 -4 0
1 4 -10 0
1 16 -1 0
1 -1 -3 0
1 4 2 0
1 -30 1 0
1 -1 27 0
1 17 22 0
1 -27 18 0
1 -4 -29 0
1 33 18 0
1 -10 1 0
1 -4 -21 0
1 -12 -10 0
1 5 -1 0
1 -35 0
1 8 -19 0
1 13 -16 0
1 1 -20 0
1 -10 0
1 7 10 0
1 18 4 0
1 -25 3 0
1 19 -13 0
1 -1 10 0
1 -14 1 0
1 -9 -1 0
1 25 -10 0
1 4 -8 0
1 -1 -10 -3 0
1 -1 -7 0
1 -1 33 0
1 6 -34 0
1 -8 16 0
1 -33 1 0
1 1 -3 0
1 26 18 0
1 1 27 0
1 -15 0
1 -1 3 0
1 4 8 0
1 26 -1 0
1 -31 -8 0
1 -29 14 0
1 9 0
1 -8 22 0
1 21 -4 0
1 4 -2 0
1 10 1 0
1 23 8 0
1 -31 1 0
1 -10 -12 0
1 -23 1 0
1 -16 -3 0
1 -11 -10 0
1 -28 3 0
1 -10 -1 0
1 23 -21 0
1 -34 0
1 -4 -1 0
1 -29 0
1 32 3 0
1 -8 35 0
1 -4 1 0
1 -3 24 0
1 15 -1 0
1 4 23 0
1 -22 0
1 -8 -4 0
1 8 -31 0
1 -1 -6 0
1 -4 -32 0
1 18 11 0
1 -10 -28 0
1 4 -19 0
1 30 0
1 -8 26 0
1 25 8 0
1 -4 23 0
1 8 -4 0
1 -4 -3 8 0
1 8 0
1 6 0
1 -14 -22 0
1 32 0
1 -8 4 0
1 -12 8 0
h 36 37 0
1 -36 0
h 38 -39 0
1 -38 0
h 40 -1 0
1 -40 0
h 41 -4 0
1 -41 0
h 42 9 0
1 -42 0
h 43 -9 44 0
1 -43 0
h 45 -46 0
1 -45 0
h 47 3 0
1 -47 0
h 10 8 0
h 48 -21 0
1 -48 0
h 49 3 0
1 -49 0
h 50 -10 0
1 -50 0
h 51 -4 0
1 -51 0
h 52 3 0
1 -52 0
h 53 54 0
1 -53 0
h 55 -4 0
1 -55 0
h 56 6 0
1 -56 0
h 57 -10 0
1 -57 0
h 58 -4 0
1 -58 0
h 59 34 28 0
1 -59 0
h 60 -44 0
1 -60 0
h 61 18 0
1 -61 0
